p cnf 80 266
1 2 -3 0
-1 -2 -3 0
1 -2 3 0
-1 2 3 0
-5 -3 0
-5 4 0
3 -4 5 0
-7 1 -8 0
7 -1 -8 0
-7 -1 8 0
7 1 8 0
8 -7 -9 0
-8 7 -9 0
8 7 9 0
-8 -7 9 0
10 6 0
10 9 0
-6 -9 -10 0
-11 -3 0
-11 10 0
3 -10 11 0
12 -5 0
12 11 0
5 -11 -12 0
15 -13 0
15 14 0
13 -14 -15 0
17 -15 0
17 -16 0
15 16 -17 0
18 -8 -19 0
-18 8 -19 0
18 8 19 0
-18 -8 19 0
19 -1 -20 0
-19 1 -20 0
19 1 20 0
-19 -1 20 0
-21 6 -22 0
21 -6 -22 0
-21 -6 22 0
21 6 22 0
-23 20 0
-23 22 0
-20 -22 23 0
-7 4 -24 0
7 -4 -24 0
-7 -4 24 0
7 4 24 0
26 -8 0
26 -25 0
8 25 -26 0
-24 26 -27 0
24 -26 -27 0
-24 -26 27 0
24 26 27 0
-28 23 0
-28 27 0
-23 -27 28 0
17 -28 -29 0
-17 28 -29 0
17 28 29 0
-17 -28 29 0
-30 -22 0
-30 20 0
22 -20 30 0
29 -30 -31 0
-29 30 -31 0
29 30 31 0
-29 -30 31 0
-32 -7 0
-32 18 0
7 -18 32 0
-33 -1 0
-33 16 0
1 -16 33 0
-33 -14 -34 0
33 14 -34 0
-33 14 34 0
33 -14 34 0
-32 34 -35 0
32 -34 -35 0
-32 -34 35 0
32 34 35 0
-38 36 0
-38 -37 0
-36 37 38 0
39 38 0
39 -15 0
-38 15 -39 0
-40 -35 0
-40 39 0
35 -39 40 0
41 -25 0
41 36 0
25 -36 -41 0
-21 3 -42 0
21 -3 -42 0
-21 -3 42 0
21 3 42 0
42 24 -43 0
-42 -24 -43 0
42 -24 43 0
-42 24 43 0
43 -10 -44 0
-43 10 -44 0
43 10 44 0
-43 -10 44 0
-45 -33 0
-45 -19 0
33 19 45 0
-13 45 -46 0
13 -45 -46 0
-13 -45 46 0
13 45 46 0
-47 46 0
-47 -45 0
-46 45 47 0
48 44 0
48 -47 0
-44 47 -48 0
-49 -41 0
-49 48 0
41 -48 49 0
-50 -40 0
-50 49 0
40 -49 50 0
-51 -31 0
-51 -50 0
31 50 51 0
52 -12 0
52 -51 0
12 51 -52 0
-53 22 0
-53 33 0
-22 -33 53 0
54 53 0
54 37 0
-53 -37 -54 0
-52 -54 -55 0
52 54 -55 0
-52 54 55 0
52 -54 55 0
-25 -22 -56 0
25 22 -56 0
-25 22 56 0
25 -22 56 0
6 -26 -57 0
-6 26 -57 0
6 26 57 0
-6 -26 57 0
-57 19 -58 0
57 -19 -58 0
-57 -19 58 0
57 19 58 0
59 -43 0
59 -18 0
43 18 -59 0
4 -6 -60 0
-4 6 -60 0
4 6 60 0
-4 -6 60 0
-61 -19 0
-61 7 0
19 -7 61 0
-62 -60 0
-62 -61 0
60 61 62 0
63 -53 0
63 32 0
53 -32 -63 0
64 -62 0
64 -63 0
62 63 -64 0
65 61 0
65 -13 0
-61 13 -65 0
65 -66 0
-65 -66 0
-67 -64 0
-67 66 0
64 -66 67 0
68 -59 0
68 -67 0
59 67 -68 0
58 -68 -69 0
-58 68 -69 0
58 68 69 0
-58 -68 69 0
-70 -1 0
-70 -6 0
1 6 70 0
-71 25 0
-71 -70 0
-25 70 71 0
-72 71 0
-72 15 0
-71 -15 72 0
-73 -36 0
-73 26 0
36 -26 73 0
-74 -72 0
-74 -73 0
72 73 74 0
75 69 0
75 -74 0
-69 74 -75 0
-56 -75 -76 0
56 75 -76 0
-56 75 76 0
56 -75 76 0
77 -15 -78 0
-77 15 -78 0
77 15 78 0
-77 -15 78 0
-79 76 0
-79 -78 0
-76 78 79 0
-80 -55 0
-80 -79 0
55 79 80 0
20 -66 0
26 -35 -57 -11 0
60 -68 -13 -22 -44 -80 0
-71 43 52 34 0
-4 -8 0
-73 16 78 44 -35 0
64 -59 67 50 31 9 0
-73 -75 0
-54 55 -42 -69 0
65 -45 -53 -13 -1 0
-3 68 9 0
76 -40 51 0
68 -53 -32 -49 -47 0
33 -47 0
-78 32 0
-52 -35 22 0
-79 29 0
50 -33 60 -21 0
61 -3 -18 0
8 25 7 24 22 61 0
47 -46 -36 0
23 70 -17 36 0
57 -37 -41 0
79 8 -57 0
59 32 -13 80 0
14 -54 -40 60 -46 0
-24 -65 0
20 -36 0
65 -66 -10 -3 16 0
70 11 -45 13 0
23 5 0
-42 74 -46 0
-49 33 15 0
-5 -40 -75 -51 0
36 57 0
-49 74 56 -46 -5 48 0
-69 39 0
72 -52 -9 0
73 -16 0
-46 73 7 67 0
57 58 0
48 -57 -69 0
-73 17 43 48 -46 0
5 58 60 -4 67 2 0
80 0
